15 4 
3432	3432	3432	3432	
116	714	725	
119	150	162	
814	661	663	
782	646	657	
781	651	669	
211	210	220	
709	65	65	
413	121	129	
852	997	1085	
956	68	71	
887	905	933	
822	502	525	
269	720	786	
787	55	56	
794	400	433	
